Traveling Salesman Problem/TSP_generados/Aleatorio1621103480_15.tsp
NAME: Aleatorio1621103480_15.tsp
COMMENT: Randomly generated scenario
TYPE: TSP
DIMENSION: 15
EDGE_WEIGHT_TYPE: ATT
NODE_COORD_SECTION
1 13.15 21.95
2 24.99 40.2
3 40.42 15.7
4 1.49 4.51
5 21.88 24.97
6 17.34 38.69
7 44.03 43.73
8 48.18 49.74
9 25.71 22.38
10 13.72 11.32
11 25.97 13.99
12 17.84 16.68
13 15.67 7.92
14 2.91 40.51
15 5.01 7.62
