Traveling Salesman Problem/TSP_generados/Aleatorio1621103480_15.opt.tour
NAME: Aleatorio1621103480_15.opt.tour
COMMENT: Optimal solution for Aleatorio1621103480_15 (187.41236919601135)
TYPE: TOUR
DIMENSION: 15
TOUR_SECTION
1 14 6 2 8 7 3 11 9 5 12 10 13 4 15
-1
EOF
